0 1852 
1 1844 
2 1840 
3 1826 
4 1814 
5 1812 
6 1796 
7 1788 
8 1786 
9 1782 
10 1774 
11 1774 
12 1762 
13 1758 
14 1750 
15 1746 
16 1742 
17 1740 
18 1738 
19 1734 
20 1730 
21 1722 
22 1706 
23 1698 
24 1694 
25 1690 
26 1682 
27 1680 
28 1676 
29 1676 

